LatticeConstant 1.0 Ang
%block LatticeVectors
 10.00000000 0.00000000 0.00000000
 0.00000000 10.00000000 0.00000000
 0.00000000 0.00000000 10.00000000
%endblock LatticeVectors

NumberOfAtoms 3
AtomicCoordinatesFormat Ang
%block AtomicCoordinatesAndAtomicSpecies
  0.00000000  0.00000000  0.00000000 1 # 1: C
  1.16300000  0.00000000  0.00000000 2 # 2: O
 -1.16300000  0.00000000  0.00000000 2 # 3: O
%endblock AtomicCoordinatesAndAtomicSpecies

NumberOfSpecies 2
%block ChemicalSpeciesLabel
 1 6 C
 2 8 O
%endblock ChemicalSpeciesLabel
